datasets/2-dimensional/CL_03_25_08.vbp
2
1000 1000 
25
376 287 30
448 602 72
391 555 4
537 279 88
221 706 54
775 571 64
733 606 90
629 545 26
595 321 94
365 668 28
472 718 72
449 406 49
631 465 54
349 627 19
339 226 28
332 597 61
262 271 84
263 382 23
668 464 67
210 249 53
223 272 54
439 666 16
793 563 9
217 497 54
245 603 77
