datasets/2-dimensional-benchmark/CL_03_25_08.txt
1000 1000 
0 30 376 287 
1 72 448 602 
2 4 391 555 
3 88 537 279 
4 54 221 706 
5 64 775 571 
6 90 733 606 
7 26 629 545 
8 94 595 321 
9 28 365 668 
10 72 472 718 
11 49 449 406 
12 54 631 465 
13 19 349 627 
14 28 339 226 
15 61 332 597 
16 84 262 271 
17 23 263 382 
18 67 668 464 
19 53 210 249 
20 54 223 272 
21 16 439 666 
22 9 793 563 
23 54 217 497 
24 77 245 603 
